ID_groupA
13070
13070
13070
13070
13070
1547
13070
13070
13070
13070
13070
13070
13070
24733
12976
12976
12976
12976
13070
12976
12976
12976
12976
12976
12976
12976
24733
12976
44722
12976
13070
12976
12976
12976
44722
12976
12976
12976
12976
12976
24733
13070
12976
12976
12976
12976
12976
12976
12976
24733
13070
13070
12976
12976
13070
44722
12976
12976
13070
13070
1547
12976
24733
13070
12976
12976
12976
24733
24733
13070
1547
1547
1547
13070
13070
1547
1547
12976
12976
44722
12976
12976
12976
24733
13070
12976
12976
12976
13070
24733
44722
12976
12976
13070
13070
44722
12976
12976
12976
12976
12976
12976
12976
24733
24733
